(declare-const term_to_project_onto1_integralized Int)
(declare-const tmp Int)
(declare-const term_to_project_onto0_integralized Int)
(declare-const term_to_project_onto2_integralized Int)
(declare-const term_to_project_onto_integralized Int)
(assert (exists
         ((uninterp?1?1 Int) (uninterp?2?2 Int) (uninterp?3?3 Int)
            (uninterp?4?4 Int) (uninterp?5?5 Int) (uninterp?6?6 Int)
            (uninterp?7?7 Int) (uninterp?8?8 Int) (|tmp'?9?9| Int)
            (|k'?10?10| Int) (|c'?11?11| Int) (|counter'?12?12| Int)
            (q?13?13 Int) (s?14?14 Int) (r?15?15 Int) (p?16?16 Int)
            (k?17?17 Int) (c?18?18 Int) (a?19?19 Int) (b?20?20 Int)
            (counter?21?21 Int) (y?22?22 Int) (x?23?23 Int))
         (and (<= (- k?17?17) 0) (<= (- c?18?18) 0) (<= (+ (- a?19?19) 1) 0)
                (<= (+ (- b?20?20) 1) 0) (<= (+ (- counter?21?21) 1) 0)
                (<= (+ (- y?22?22) 1) 0) (<= (+ (- x?23?23) 1) 0)
                (<= (+ counter?21?21 -19) 0)
                (= (+ a?19?19 (- c?18?18) (- uninterp?8?8)) 0)
                (= (+ (- uninterp?7?7) (- uninterp?6?6) a?19?19) 0)
                (= (+ (- uninterp?5?5) (- uninterp?4?4) b?20?20) 0)
                (= (+ uninterp?3?3 uninterp?2?2 (- uninterp?5?5)
                        (- uninterp?4?4) (- uninterp?1?1) b?20?20) 0)
                (<= (+ b?20?20 (- c?18?18)) 0)
                (= (+ |tmp'?9?9| (- counter?21?21)) 0)
                (= (+ |k'?10?10| (- k?17?17) -1) 0)
                (= (+ |c'?11?11| b?20?20 (- c?18?18)) 0)
                (= (+ |counter'?12?12| (- counter?21?21) -1) 0)
                (<= (+ 1 (- uninterp?1?1)) 0)
                (<= (+ b?20?20 (- uninterp?1?1)) 0)
                (<= (+ y?22?22 (- uninterp?1?1)) 0)
                (<= (+ s?14?14 (- uninterp?4?4)) 0)
                (<= (+ q?13?13 (- uninterp?5?5)) 0)
                (<= (+ r?15?15 (- uninterp?6?6)) 0)
                (<= (+ p?16?16 (- uninterp?7?7)) 0) (<= (- uninterp?8?8) 0)
                (<= (+ k?17?17 (- uninterp?8?8)) 0)
                (= (- (+ (- uninterp?3?3) (- uninterp?2?2) uninterp?1?1)) 0)
                (= (+ term_to_project_onto2_integralized
                        (- (+ |counter'?12?12| (- counter?21?21)))) 0)
                (= (+ term_to_project_onto1_integralized
                        (- (+ |c'?11?11| (- c?18?18)))) 0)
                (= (+ term_to_project_onto0_integralized
                        (- (+ |k'?10?10| (- k?17?17)))) 0)
                (= (+ term_to_project_onto_integralized
                        (- (+ |tmp'?9?9| (- tmp)))) 0))))